certificates/rado_a15_c295_N42.cnf
c Rad2 upper bound instance: x1 + 15*x2 - x3 = 295, interval [1,42]
p cnf 42 234
1 6 20 0
-1 -6 -20 0
1 21 0
-1 -21 0
1 22 36 0
-1 -22 -36 0
2 7 20 0
-2 -7 -20 0
2 21 22 0
-2 -21 -22 0
2 22 37 0
-2 -22 -37 0
3 8 20 0
-3 -8 -20 0
3 21 23 0
-3 -21 -23 0
3 22 38 0
-3 -22 -38 0
4 9 20 0
-4 -9 -20 0
4 21 24 0
-4 -21 -24 0
4 22 39 0
-4 -22 -39 0
5 10 20 0
-5 -10 -20 0
5 21 25 0
-5 -21 -25 0
5 22 40 0
-5 -22 -40 0
6 11 20 0
-6 -11 -20 0
6 21 26 0
-6 -21 -26 0
6 22 41 0
-6 -22 -41 0
7 12 20 0
-7 -12 -20 0
7 21 27 0
-7 -21 -27 0
7 22 42 0
-7 -22 -42 0
8 13 20 0
-8 -13 -20 0
8 21 28 0
-8 -21 -28 0
9 14 20 0
-9 -14 -20 0
9 21 29 0
-9 -21 -29 0
10 15 20 0
-10 -15 -20 0
10 21 30 0
-10 -21 -30 0
1 11 19 0
-1 -11 -19 0
11 16 20 0
-11 -16 -20 0
11 21 31 0
-11 -21 -31 0
2 12 19 0
-2 -12 -19 0
12 17 20 0
-12 -17 -20 0
12 21 32 0
-12 -21 -32 0
3 13 19 0
-3 -13 -19 0
13 18 20 0
-13 -18 -20 0
13 21 33 0
-13 -21 -33 0
4 14 19 0
-4 -14 -19 0
14 19 20 0
-14 -19 -20 0
14 21 34 0
-14 -21 -34 0
5 15 19 0
-5 -15 -19 0
15 20 0
-15 -20 0
15 21 35 0
-15 -21 -35 0
6 16 19 0
-6 -16 -19 0
16 20 21 0
-16 -20 -21 0
16 21 36 0
-16 -21 -36 0
7 17 19 0
-7 -17 -19 0
17 20 22 0
-17 -20 -22 0
17 21 37 0
-17 -21 -37 0
8 18 19 0
-8 -18 -19 0
18 20 23 0
-18 -20 -23 0
18 21 38 0
-18 -21 -38 0
9 19 0
-9 -19 0
19 20 24 0
-19 -20 -24 0
19 21 39 0
-19 -21 -39 0
10 19 20 0
-10 -19 -20 0
20 25 0
-20 -25 0
20 21 40 0
-20 -21 -40 0
11 19 21 0
-11 -19 -21 0
20 21 26 0
-20 -21 -26 0
21 41 0
-21 -41 0
12 19 22 0
-12 -19 -22 0
20 22 27 0
-20 -22 -27 0
21 22 42 0
-21 -22 -42 0
13 19 23 0
-13 -19 -23 0
20 23 28 0
-20 -23 -28 0
14 19 24 0
-14 -19 -24 0
20 24 29 0
-20 -24 -29 0
15 19 25 0
-15 -19 -25 0
20 25 30 0
-20 -25 -30 0
1 18 26 0
-1 -18 -26 0
16 19 26 0
-16 -19 -26 0
20 26 31 0
-20 -26 -31 0
2 18 27 0
-2 -18 -27 0
17 19 27 0
-17 -19 -27 0
20 27 32 0
-20 -27 -32 0
3 18 28 0
-3 -18 -28 0
18 19 28 0
-18 -19 -28 0
20 28 33 0
-20 -28 -33 0
4 18 29 0
-4 -18 -29 0
19 29 0
-19 -29 0
20 29 34 0
-20 -29 -34 0
5 18 30 0
-5 -18 -30 0
19 20 30 0
-19 -20 -30 0
20 30 35 0
-20 -30 -35 0
6 18 31 0
-6 -18 -31 0
19 21 31 0
-19 -21 -31 0
20 31 36 0
-20 -31 -36 0
7 18 32 0
-7 -18 -32 0
19 22 32 0
-19 -22 -32 0
20 32 37 0
-20 -32 -37 0
8 18 33 0
-8 -18 -33 0
19 23 33 0
-19 -23 -33 0
20 33 38 0
-20 -33 -38 0
9 18 34 0
-9 -18 -34 0
19 24 34 0
-19 -24 -34 0
20 34 39 0
-20 -34 -39 0
10 18 35 0
-10 -18 -35 0
19 25 35 0
-19 -25 -35 0
20 35 40 0
-20 -35 -40 0
11 18 36 0
-11 -18 -36 0
19 26 36 0
-19 -26 -36 0
20 36 41 0
-20 -36 -41 0
12 18 37 0
-12 -18 -37 0
19 27 37 0
-19 -27 -37 0
20 37 42 0
-20 -37 -42 0
13 18 38 0
-13 -18 -38 0
19 28 38 0
-19 -28 -38 0
14 18 39 0
-14 -18 -39 0
19 29 39 0
-19 -29 -39 0
15 18 40 0
-15 -18 -40 0
19 30 40 0
-19 -30 -40 0
1 17 41 0
-1 -17 -41 0
16 18 41 0
-16 -18 -41 0
19 31 41 0
-19 -31 -41 0
2 17 42 0
-2 -17 -42 0
17 18 42 0
-17 -18 -42 0
19 32 42 0
-19 -32 -42 0
