certificates/rado_a15_c295_N42.drat
-41 -42 0
-42 0
-17 -21 0
d -17 -37 -21 0
41 0
-21 0
1 0
22 0
-17 0
-36 0
-6 0
37 0
2 0
18 0
16 0
26 0
0
